20 90
0 1 24.6
0 2 55.3
0 3 8.3
0 4 83.3
0 5 55.7
0 6 70.4
0 7 97.9
0 8 45.7
0 9 89.3
0 10 79.1
0 11 21.1
0 12 60.2
0 13 30.0
0 14 58.0
0 15 52.9
0 16 88.1
0 17 66.0
0 18 81.0
0 19 17.8
1 2 69.5
1 3 16.5
1 4 82.4
1 5 60.8
1 6 55.9
1 7 99.3
1 8 53.3
1 9 106.6
1 10 92.9
1 11 42.9
1 12 39.6
1 13 23.7
1 14 46.5
1 15 52.5
1 16 99.0
1 17 51.8
1 18 84.7
1 19 10.3
2 3 58.0
2 4 50.2
2 5 24.4
2 6 72.9
2 7 56.4
2 8 21.1
2 9 38.1
2 10 23.9
2 11 37.1
2 12 81.1
2 13 50.5
2 14 60.5
2 15 36.7
2 16 33.5
2 17 69.9
2 18 38.7
2 19 59.3
3 4 80.7
3 5 54.8
3 6 63.8
3 7 96.2
3 8 45.5
3 9 93.6
3 10 81.9
3 11 27.1
3 12 52.3
3 13 24.3
3 14 52.0
3 15 50.0
3 16 89.7
3 17 59.4
3 18 80.0
3 19 9.8
4 5 30.2
4 6 46.6
4 7 18.0
4 8 40.7
4 9 72.9
4 10 52.2
4 11 75.0
4 12 67.7
4 13 58.9
4 14 42.8
4 15 30.7
4 16 44.6
4 17 46.7
4 18 15.6
4 19 75.5
5 6 49.5
5 7 42.4
5 8 10.7
5 9 58.3
5 10 38.9
5 11 45.1
5 12 61.3
5 13 37.7
5 14 38.1
5 15 13.7
5 16 40.2
5 17 46.9
5 18 25.3
5 19 52.0
6 7 64.0
6 8 52.6
6 9 107.5
6 10 87.5
6 11 74.9
6 12 24.2
6 13 40.5
6 14 13.7
6 15 36.2
6 16 85.3
6 17 4.4
6 18 58.5
6 19 54.6
7 8 53.0
7 9 69.2
7 10 50.2
7 11 87.0
7 12 85.6
7 13 75.6
7 14 60.8
7 15 46.9
7 16 38.8
7 17 64.4
7 18 18.0
7 19 91.8
8 9 58.5
8 10 41.2
8 11 34.4
8 12 60.2
8 13 31.5
8 14 39.7
8 15 17.1
8 16 45.8
8 17 49.3
8 18 35.6
8 19 43.8
9 10 20.8
9 11 68.7
9 12 118.5
9 13 88.6
9 14 96.3
9 15 71.9
9 16 30.4
9 17 105.1
9 18 57.4
9 19 96.4
10 11 60.3
10 12 100.1
10 13 72.6
10 14 76.9
10 15 52.6
10 16 14.0
10 17 85.4
10 18 36.9
10 19 82.8
11 12 71.2
11 13 36.4
11 14 61.3
11 15 47.6
11 16 70.6
11 17 70.7
11 18 69.2
11 19 33.4
12 13 35.1
12 14 25.3
12 15 47.9
12 16 100.8
12 17 22.0
12 18 77.0
12 19 42.5
13 14 27.9
13 15 28.8
13 16 77.1
13 17 36.2
13 18 61.1
13 19 16.9
14 15 24.4
14 16 76.3
14 17 9.8
14 18 51.7
14 19 43.4
15 16 53.0
15 17 33.4
15 18 32.6
15 19 45.0
16 17 83.8
16 18 29.1
16 19 89.3
17 18 57.7
17 19 50.3
18 19 76.5
